NAME: cum40.tsp
TYPE: TSP
COMMENT: User-generated TSP file
DIMENSION: 40
EDGE_WEIGHT_TYPE: EUC_2D
NODE_COORD_SECTION
1 53.0 3.0
2 20.0 20.0
3 10.0 20.0
4 74.0 95.0
5 90.0 26.0
6 68.0 9.0
7 33.0 96.0
8 64.0 57.0
9 43.0 27.0
10 50.0 57.0
11 50.0 83.0
12 56.0 11.0
13 55.0 88.0
14 91.0 75.0
15 55.0 29.0
16 18.0 18.0
17 35.0 33.0
18 97.0 54.0
19 61.0 25.0
20 14.0 46.0
21 74.0 41.0
22 49.0 98.0
23 99.0 53.0
24 5.0 95.0
25 8.0 82.0
26 60.0 37.0
27 67.0 47.0
28 8.0 50.0
29 15.0 16.0
30 40.0 74.0
31 14.0 82.0
32 21.0 8.0
33 56.0 86.0
34 39.0 6.0
35 13.0 22.0
36 91.0 43.0
37 48.0 37.0
38 18.0 86.0
39 60.0 80.0
40 39.0 92.0
EOF

